c 
c G(k,n,p) graph
c graph gen seed     : 456
c number of vertices : 20
c max number of edges: 400
c number of classes  : 2
c edge density       : 0.800000
c edge probability   : 1.600000
c data structure     : dense
c
c           Graph Stats
c number of vertices  : 20
c nonisolated vertices: 20
c number of edges     : 100
c edge density        : 0.526316
c max degree          : 10
c avg degree          : 10.00
c min degree          : 10
p col 20 100
e 1 2
e 1 3
e 1 4
e 1 6
e 1 9
e 1 10
e 1 13
e 1 14
e 1 15
e 1 17
e 2 5
e 2 7
e 2 8
e 2 11
e 2 12
e 2 16
e 2 18
e 2 19
e 2 20
e 3 5
e 3 7
e 3 8
e 3 11
e 3 12
e 3 16
e 3 18
e 3 19
e 3 20
e 4 5
e 4 7
e 4 8
e 4 11
e 4 12
e 4 16
e 4 18
e 4 19
e 4 20
e 5 6
e 5 9
e 5 10
e 5 13
e 5 14
e 5 15
e 5 17
e 6 7
e 6 8
e 6 11
e 6 12
e 6 16
e 6 18
e 6 19
e 6 20
e 7 9
e 7 10
e 7 13
e 7 14
e 7 15
e 7 17
e 8 9
e 8 10
e 8 13
e 8 14
e 8 15
e 8 17
e 9 11
e 9 12
e 9 16
e 9 18
e 9 19
e 9 20
e 10 11
e 10 12
e 10 16
e 10 18
e 10 19
e 10 20
e 11 13
e 11 14
e 11 15
e 11 17
e 12 13
e 12 14
e 12 15
e 12 17
e 13 16
e 13 18
e 13 19
e 13 20
e 14 16
e 14 18
e 14 19
e 14 20
e 15 16
e 15 18
e 15 19
e 15 20
e 16 17
e 17 18
e 17 19
e 17 20
